%chk=WATERopt.chk
%nproc=2
%mem=2GB
#p sp

Title Card Required

1 2
 O        0.000000    0.000000    0.116494
 H        0.000000    0.769475    -0.465976
 H        0.000000    -0.769475    -0.465976

