%chk=WATERopt.chk
%nproc=2
%mem=2GB
#p rb3lyp/6-31+g(d,p) sp volume polar

Title Card Required

0 1
 O        0.000000    0.000000    0.116494
 H        0.000000    0.769475    -0.465976
 H        0.000000    -0.769475    -0.465976

