%chk=3D2TA-QMMM-insidegauss-ligand.chk
%nproc=2
%mem=16GB
#p rb3lyp/6-31+g(d,p) opt freq polar

3D2T

-1 1
 F                 -0.46560000   42.06950000    5.41240000
 C                  0.86360000   42.63230000    5.39440000
 C                  1.42960000   42.75650000    4.17720000
 C                  2.67950000   43.37300000    3.98950000
 F                  3.23040000   43.50160000    2.75750000
 C                  3.36930000   43.86850000    5.04630000
 C                  2.85050000   43.73870000    6.25050000
 C                  1.54370000   43.10990000    6.53950000
 C                  1.04720000   42.99080000    7.86940000
 C                  0.52270000   41.72160000    8.42020000
 C                 -0.01030000   41.57210000    9.60220000
 C                 -0.53890000   40.14060000   10.02020000
 O                 -0.10930000   38.99400000    9.27550000
 O                 -1.24010000   39.98160000   10.88020000
 C                  0.96110000   44.05430000    8.73340000
 C                  0.48780000   43.91180000    9.94770000
 C                  0.01150000   42.75120000   10.38850000
 O                 -0.49970000   42.71260000   11.72800000
 H                  0.90010000   42.36560000    3.30840000
 H                  4.33030000   44.36250000    4.90310000
 H                  3.42550000   44.12200000    7.09350000
 H                  0.58690000   40.83750000    7.78580000
 H                  1.29350000   45.03830000    8.40270000
 H                  0.48460000   44.77200000   10.61720000
 H                 -1.51140000   42.43190000   11.70910000

 1 2 1.0
 2 3 2.0 8 1.0
 3 4 1.0 19 1.0
 4 5 1.0 6 2.0
 5
 6 7 1.0 20 1.0
 7 8 2.0 21 1.0
 8 9 1.0
 9 10 2.0 15 2.0
 10 11 1.0 22 1.0
 11 12 1.0 17 2.0
 12 13 1.0 14 2.0
 13 23 1.0
 14
 15 16 2.0 24 1.0
 16 17 1.0 25 1.0
 17 18 1.0
 18 26 1.0
 19
 20
 21
 22
 23
 24
 25
 26



